(set-option :produce-models true)
(set-logic QF_LRA)
(set-info :notes | Strip-packing problem.|)
(declare-fun x0 () Real)
(declare-fun y0 () Real)
(declare-fun x1 () Real)
(declare-fun y1 () Real)
(declare-fun x2 () Real)
(declare-fun y2 () Real)
(declare-fun x3 () Real)
(declare-fun y3 () Real)
(declare-fun x4 () Real)
(declare-fun y4 () Real)
(declare-fun x5 () Real)
(declare-fun y5 () Real)
(declare-fun x6 () Real)
(declare-fun y6 () Real)
(declare-fun x7 () Real)
(declare-fun y7 () Real)
(declare-fun x8 () Real)
(declare-fun y8 () Real)
(declare-fun x9 () Real)
(declare-fun y9 () Real)
(declare-fun x10 () Real)
(declare-fun y10 () Real)
(declare-fun x11 () Real)
(declare-fun y11 () Real)
(declare-fun x12 () Real)
(declare-fun y12 () Real)
(declare-fun x13 () Real)
(declare-fun y13 () Real)
(declare-fun x14 () Real)
(declare-fun y14 () Real)
(declare-fun z () Real)
(declare-fun c () Real)
(assert (and (= c z) (and (>= x0 0) 
(and (>= y0 0) 
(and (>= x1 0) 
(and (>= y1 0) 
(and (>= x2 0) 
(and (>= y2 0) 
(and (>= x3 0) 
(and (>= y3 0) 
(and (>= x4 0) 
(and (>= y4 0) 
(and (>= x5 0) 
(and (>= y5 0) 
(and (>= x6 0) 
(and (>= y6 0) 
(and (>= x7 0) 
(and (>= y7 0) 
(and (>= x8 0) 
(and (>= y8 0) 
(and (>= x9 0) 
(and (>= y9 0) 
(and (>= x10 0) 
(and (>= y10 0) 
(and (>= x11 0) 
(and (>= y11 0) 
(and (>= x12 0) 
(and (>= y12 0) 
(and (>= x13 0) 
(and (>= y13 0) 
(and (>= x14 0) 
(and (>= y14 0) 
(and (>= z 0) 
(and (>= c 0) 
(and (<= (+ x0 0.2757011793) z) 
(and (<= 0.9337685304 y0) 
(and (<= y0 1.0) 
(and (<= x0 (- 6.1741825959 0.2757011793)) 
(and (>= x0 0) 
(and (<= (+ x1 0.3919636036) z) 
(and (<= 0.8299087093 y1) 
(and (<= y1 1.0) 
(and (<= x1 (- 6.1741825959 0.3919636036)) 
(and (>= x1 0) 
(and (<= (+ x2 0.4171585858) z) 
(and (<= 0.7767069568 y2) 
(and (<= y2 1.0) 
(and (<= x2 (- 6.1741825959 0.4171585858)) 
(and (>= x2 0) 
(and (<= (+ x3 0.6554329371) z) 
(and (<= 0.7330366842 y3) 
(and (<= y3 1.0) 
(and (<= x3 (- 6.1741825959 0.6554329371)) 
(and (>= x3 0) 
(and (<= (+ x4 0.9883179413) z) 
(and (<= 0.6255927852 y4) 
(and (<= y4 1.0) 
(and (<= x4 (- 6.1741825959 0.9883179413)) 
(and (>= x4 0) 
(and (<= (+ x5 0.3021370883) z) 
(and (<= 0.6250682619 y5) 
(and (<= y5 1.0) 
(and (<= x5 (- 6.1741825959 0.3021370883)) 
(and (>= x5 0) 
(and (<= (+ x6 0.3605263053) z) 
(and (<= 0.5709790159 y6) 
(and (<= y6 1.0) 
(and (<= x6 (- 6.1741825959 0.3605263053)) 
(and (>= x6 0) 
(and (<= (+ x7 0.9754221876) z) 
(and (<= 0.5244660966 y7) 
(and (<= y7 1.0) 
(and (<= x7 (- 6.1741825959 0.9754221876)) 
(and (>= x7 0) 
(and (<= (+ x8 0.8591705677) z) 
(and (<= 0.4731537532 y8) 
(and (<= y8 1.0) 
(and (<= x8 (- 6.1741825959 0.8591705677)) 
(and (>= x8 0) 
(and (<= (+ x9 0.387202307) z) 
(and (<= 0.4719508403 y9) 
(and (<= y9 1.0) 
(and (<= x9 (- 6.1741825959 0.387202307)) 
(and (>= x9 0) 
(and (<= (+ x10 0.0405861363) z) 
(and (<= 0.3853371255 y10) 
(and (<= y10 1.0) 
(and (<= x10 (- 6.1741825959 0.0405861363)) 
(and (>= x10 0) 
(and (<= (+ x11 0.4636132649) z) 
(and (<= 0.3137774403 y11) 
(and (<= y11 1.0) 
(and (<= x11 (- 6.1741825959 0.4636132649)) 
(and (>= x11 0) 
(and (<= (+ x12 0.6705213515) z) 
(and (<= 0.2734031729 y12) 
(and (<= y12 1.0) 
(and (<= x12 (- 6.1741825959 0.6705213515)) 
(and (>= x12 0) 
(and (<= (+ x13 0.7497991091) z) 
(and (<= 0.2527138283 y13) 
(and (<= y13 1.0) 
(and (<= x13 (- 6.1741825959 0.7497991091)) 
(and (>= x13 0) 
(and (<= (+ x14 0.5269493387) z) 
(and (<= 0.0372081119 y14) 
(and (<= y14 1.0) 
(and (<= x14 (- 6.1741825959 0.5269493387)) 
(and (>= x14 0) 
(and (<= c 6.1741825959) 
(and (or (<= (+ x0 0.2757011793) x1) (or (<= (+ x1 0.3919636036) x0) (or (>= (- y0 0.9337685304) y1) (or (>= (- y1 0.8299087093) y0))))) 
(and (or (<= (+ x0 0.2757011793) x2) (or (<= (+ x2 0.4171585858) x0) (or (>= (- y0 0.9337685304) y2) (or (>= (- y2 0.7767069568) y0))))) 
(and (or (<= (+ x0 0.2757011793) x3) (or (<= (+ x3 0.6554329371) x0) (or (>= (- y0 0.9337685304) y3) (or (>= (- y3 0.7330366842) y0))))) 
(and (or (<= (+ x0 0.2757011793) x4) (or (<= (+ x4 0.9883179413) x0) (or (>= (- y0 0.9337685304) y4) (or (>= (- y4 0.6255927852) y0))))) 
(and (or (<= (+ x0 0.2757011793) x5) (or (<= (+ x5 0.3021370883) x0) (or (>= (- y0 0.9337685304) y5) (or (>= (- y5 0.6250682619) y0))))) 
(and (or (<= (+ x0 0.2757011793) x6) (or (<= (+ x6 0.3605263053) x0) (or (>= (- y0 0.9337685304) y6) (or (>= (- y6 0.5709790159) y0))))) 
(and (or (<= (+ x0 0.2757011793) x7) (or (<= (+ x7 0.9754221876) x0) (or (>= (- y0 0.9337685304) y7) (or (>= (- y7 0.5244660966) y0))))) 
(and (or (<= (+ x0 0.2757011793) x8) (or (<= (+ x8 0.8591705677) x0) (or (>= (- y0 0.9337685304) y8) (or (>= (- y8 0.4731537532) y0))))) 
(and (or (<= (+ x0 0.2757011793) x9) (or (<= (+ x9 0.387202307) x0) (or (>= (- y0 0.9337685304) y9) (or (>= (- y9 0.4719508403) y0))))) 
(and (or (<= (+ x0 0.2757011793) x10) (or (<= (+ x10 0.0405861363) x0) (or (>= (- y0 0.9337685304) y10) (or (>= (- y10 0.3853371255) y0))))) 
(and (or (<= (+ x0 0.2757011793) x11) (or (<= (+ x11 0.4636132649) x0) (or (>= (- y0 0.9337685304) y11) (or (>= (- y11 0.3137774403) y0))))) 
(and (or (<= (+ x0 0.2757011793) x12) (or (<= (+ x12 0.6705213515) x0) (or (>= (- y0 0.9337685304) y12) (or (>= (- y12 0.2734031729) y0))))) 
(and (or (<= (+ x0 0.2757011793) x13) (or (<= (+ x13 0.7497991091) x0) (or (>= (- y0 0.9337685304) y13) (or (>= (- y13 0.2527138283) y0))))) 
(and (or (<= (+ x0 0.2757011793) x14) (or (<= (+ x14 0.5269493387) x0) (or (>= (- y0 0.9337685304) y14) (or (>= (- y14 0.0372081119) y0))))) 
(and (or (<= (+ x1 0.3919636036) x2) (or (<= (+ x2 0.4171585858) x1) (or (>= (- y1 0.8299087093) y2) (or (>= (- y2 0.7767069568) y1))))) 
(and (or (<= (+ x1 0.3919636036) x3) (or (<= (+ x3 0.6554329371) x1) (or (>= (- y1 0.8299087093) y3) (or (>= (- y3 0.7330366842) y1))))) 
(and (or (<= (+ x1 0.3919636036) x4) (or (<= (+ x4 0.9883179413) x1) (or (>= (- y1 0.8299087093) y4) (or (>= (- y4 0.6255927852) y1))))) 
(and (or (<= (+ x1 0.3919636036) x5) (or (<= (+ x5 0.3021370883) x1) (or (>= (- y1 0.8299087093) y5) (or (>= (- y5 0.6250682619) y1))))) 
(and (or (<= (+ x1 0.3919636036) x6) (or (<= (+ x6 0.3605263053) x1) (or (>= (- y1 0.8299087093) y6) (or (>= (- y6 0.5709790159) y1))))) 
(and (or (<= (+ x1 0.3919636036) x7) (or (<= (+ x7 0.9754221876) x1) (or (>= (- y1 0.8299087093) y7) (or (>= (- y7 0.5244660966) y1))))) 
(and (or (<= (+ x1 0.3919636036) x8) (or (<= (+ x8 0.8591705677) x1) (or (>= (- y1 0.8299087093) y8) (or (>= (- y8 0.4731537532) y1))))) 
(and (or (<= (+ x1 0.3919636036) x9) (or (<= (+ x9 0.387202307) x1) (or (>= (- y1 0.8299087093) y9) (or (>= (- y9 0.4719508403) y1))))) 
(and (or (<= (+ x1 0.3919636036) x10) (or (<= (+ x10 0.0405861363) x1) (or (>= (- y1 0.8299087093) y10) (or (>= (- y10 0.3853371255) y1))))) 
(and (or (<= (+ x1 0.3919636036) x11) (or (<= (+ x11 0.4636132649) x1) (or (>= (- y1 0.8299087093) y11) (or (>= (- y11 0.3137774403) y1))))) 
(and (or (<= (+ x1 0.3919636036) x12) (or (<= (+ x12 0.6705213515) x1) (or (>= (- y1 0.8299087093) y12) (or (>= (- y12 0.2734031729) y1))))) 
(and (or (<= (+ x1 0.3919636036) x13) (or (<= (+ x13 0.7497991091) x1) (or (>= (- y1 0.8299087093) y13) (or (>= (- y13 0.2527138283) y1))))) 
(and (or (<= (+ x1 0.3919636036) x14) (or (<= (+ x14 0.5269493387) x1) (or (>= (- y1 0.8299087093) y14) (or (>= (- y14 0.0372081119) y1))))) 
(and (or (<= (+ x2 0.4171585858) x3) (or (<= (+ x3 0.6554329371) x2) (or (>= (- y2 0.7767069568) y3) (or (>= (- y3 0.7330366842) y2))))) 
(and (or (<= (+ x2 0.4171585858) x4) (or (<= (+ x4 0.9883179413) x2) (or (>= (- y2 0.7767069568) y4) (or (>= (- y4 0.6255927852) y2))))) 
(and (or (<= (+ x2 0.4171585858) x5) (or (<= (+ x5 0.3021370883) x2) (or (>= (- y2 0.7767069568) y5) (or (>= (- y5 0.6250682619) y2))))) 
(and (or (<= (+ x2 0.4171585858) x6) (or (<= (+ x6 0.3605263053) x2) (or (>= (- y2 0.7767069568) y6) (or (>= (- y6 0.5709790159) y2))))) 
(and (or (<= (+ x2 0.4171585858) x7) (or (<= (+ x7 0.9754221876) x2) (or (>= (- y2 0.7767069568) y7) (or (>= (- y7 0.5244660966) y2))))) 
(and (or (<= (+ x2 0.4171585858) x8) (or (<= (+ x8 0.8591705677) x2) (or (>= (- y2 0.7767069568) y8) (or (>= (- y8 0.4731537532) y2))))) 
(and (or (<= (+ x2 0.4171585858) x9) (or (<= (+ x9 0.387202307) x2) (or (>= (- y2 0.7767069568) y9) (or (>= (- y9 0.4719508403) y2))))) 
(and (or (<= (+ x2 0.4171585858) x10) (or (<= (+ x10 0.0405861363) x2) (or (>= (- y2 0.7767069568) y10) (or (>= (- y10 0.3853371255) y2))))) 
(and (or (<= (+ x2 0.4171585858) x11) (or (<= (+ x11 0.4636132649) x2) (or (>= (- y2 0.7767069568) y11) (or (>= (- y11 0.3137774403) y2))))) 
(and (or (<= (+ x2 0.4171585858) x12) (or (<= (+ x12 0.6705213515) x2) (or (>= (- y2 0.7767069568) y12) (or (>= (- y12 0.2734031729) y2))))) 
(and (or (<= (+ x2 0.4171585858) x13) (or (<= (+ x13 0.7497991091) x2) (or (>= (- y2 0.7767069568) y13) (or (>= (- y13 0.2527138283) y2))))) 
(and (or (<= (+ x2 0.4171585858) x14) (or (<= (+ x14 0.5269493387) x2) (or (>= (- y2 0.7767069568) y14) (or (>= (- y14 0.0372081119) y2))))) 
(and (or (<= (+ x3 0.6554329371) x4) (or (<= (+ x4 0.9883179413) x3) (or (>= (- y3 0.7330366842) y4) (or (>= (- y4 0.6255927852) y3))))) 
(and (or (<= (+ x3 0.6554329371) x5) (or (<= (+ x5 0.3021370883) x3) (or (>= (- y3 0.7330366842) y5) (or (>= (- y5 0.6250682619) y3))))) 
(and (or (<= (+ x3 0.6554329371) x6) (or (<= (+ x6 0.3605263053) x3) (or (>= (- y3 0.7330366842) y6) (or (>= (- y6 0.5709790159) y3))))) 
(and (or (<= (+ x3 0.6554329371) x7) (or (<= (+ x7 0.9754221876) x3) (or (>= (- y3 0.7330366842) y7) (or (>= (- y7 0.5244660966) y3))))) 
(and (or (<= (+ x3 0.6554329371) x8) (or (<= (+ x8 0.8591705677) x3) (or (>= (- y3 0.7330366842) y8) (or (>= (- y8 0.4731537532) y3))))) 
(and (or (<= (+ x3 0.6554329371) x9) (or (<= (+ x9 0.387202307) x3) (or (>= (- y3 0.7330366842) y9) (or (>= (- y9 0.4719508403) y3))))) 
(and (or (<= (+ x3 0.6554329371) x10) (or (<= (+ x10 0.0405861363) x3) (or (>= (- y3 0.7330366842) y10) (or (>= (- y10 0.3853371255) y3))))) 
(and (or (<= (+ x3 0.6554329371) x11) (or (<= (+ x11 0.4636132649) x3) (or (>= (- y3 0.7330366842) y11) (or (>= (- y11 0.3137774403) y3))))) 
(and (or (<= (+ x3 0.6554329371) x12) (or (<= (+ x12 0.6705213515) x3) (or (>= (- y3 0.7330366842) y12) (or (>= (- y12 0.2734031729) y3))))) 
(and (or (<= (+ x3 0.6554329371) x13) (or (<= (+ x13 0.7497991091) x3) (or (>= (- y3 0.7330366842) y13) (or (>= (- y13 0.2527138283) y3))))) 
(and (or (<= (+ x3 0.6554329371) x14) (or (<= (+ x14 0.5269493387) x3) (or (>= (- y3 0.7330366842) y14) (or (>= (- y14 0.0372081119) y3))))) 
(and (or (<= (+ x4 0.9883179413) x5) (or (<= (+ x5 0.3021370883) x4) (or (>= (- y4 0.6255927852) y5) (or (>= (- y5 0.6250682619) y4))))) 
(and (or (<= (+ x4 0.9883179413) x6) (or (<= (+ x6 0.3605263053) x4) (or (>= (- y4 0.6255927852) y6) (or (>= (- y6 0.5709790159) y4))))) 
(and (or (<= (+ x4 0.9883179413) x7) (or (<= (+ x7 0.9754221876) x4) (or (>= (- y4 0.6255927852) y7) (or (>= (- y7 0.5244660966) y4))))) 
(and (or (<= (+ x4 0.9883179413) x8) (or (<= (+ x8 0.8591705677) x4) (or (>= (- y4 0.6255927852) y8) (or (>= (- y8 0.4731537532) y4))))) 
(and (or (<= (+ x4 0.9883179413) x9) (or (<= (+ x9 0.387202307) x4) (or (>= (- y4 0.6255927852) y9) (or (>= (- y9 0.4719508403) y4))))) 
(and (or (<= (+ x4 0.9883179413) x10) (or (<= (+ x10 0.0405861363) x4) (or (>= (- y4 0.6255927852) y10) (or (>= (- y10 0.3853371255) y4))))) 
(and (or (<= (+ x4 0.9883179413) x11) (or (<= (+ x11 0.4636132649) x4) (or (>= (- y4 0.6255927852) y11) (or (>= (- y11 0.3137774403) y4))))) 
(and (or (<= (+ x4 0.9883179413) x12) (or (<= (+ x12 0.6705213515) x4) (or (>= (- y4 0.6255927852) y12) (or (>= (- y12 0.2734031729) y4))))) 
(and (or (<= (+ x4 0.9883179413) x13) (or (<= (+ x13 0.7497991091) x4) (or (>= (- y4 0.6255927852) y13) (or (>= (- y13 0.2527138283) y4))))) 
(and (or (<= (+ x4 0.9883179413) x14) (or (<= (+ x14 0.5269493387) x4) (or (>= (- y4 0.6255927852) y14) (or (>= (- y14 0.0372081119) y4))))) 
(and (or (<= (+ x5 0.3021370883) x6) (or (<= (+ x6 0.3605263053) x5) (or (>= (- y5 0.6250682619) y6) (or (>= (- y6 0.5709790159) y5))))) 
(and (or (<= (+ x5 0.3021370883) x7) (or (<= (+ x7 0.9754221876) x5) (or (>= (- y5 0.6250682619) y7) (or (>= (- y7 0.5244660966) y5))))) 
(and (or (<= (+ x5 0.3021370883) x8) (or (<= (+ x8 0.8591705677) x5) (or (>= (- y5 0.6250682619) y8) (or (>= (- y8 0.4731537532) y5))))) 
(and (or (<= (+ x5 0.3021370883) x9) (or (<= (+ x9 0.387202307) x5) (or (>= (- y5 0.6250682619) y9) (or (>= (- y9 0.4719508403) y5))))) 
(and (or (<= (+ x5 0.3021370883) x10) (or (<= (+ x10 0.0405861363) x5) (or (>= (- y5 0.6250682619) y10) (or (>= (- y10 0.3853371255) y5))))) 
(and (or (<= (+ x5 0.3021370883) x11) (or (<= (+ x11 0.4636132649) x5) (or (>= (- y5 0.6250682619) y11) (or (>= (- y11 0.3137774403) y5))))) 
(and (or (<= (+ x5 0.3021370883) x12) (or (<= (+ x12 0.6705213515) x5) (or (>= (- y5 0.6250682619) y12) (or (>= (- y12 0.2734031729) y5))))) 
(and (or (<= (+ x5 0.3021370883) x13) (or (<= (+ x13 0.7497991091) x5) (or (>= (- y5 0.6250682619) y13) (or (>= (- y13 0.2527138283) y5))))) 
(and (or (<= (+ x5 0.3021370883) x14) (or (<= (+ x14 0.5269493387) x5) (or (>= (- y5 0.6250682619) y14) (or (>= (- y14 0.0372081119) y5))))) 
(and (or (<= (+ x6 0.3605263053) x7) (or (<= (+ x7 0.9754221876) x6) (or (>= (- y6 0.5709790159) y7) (or (>= (- y7 0.5244660966) y6))))) 
(and (or (<= (+ x6 0.3605263053) x8) (or (<= (+ x8 0.8591705677) x6) (or (>= (- y6 0.5709790159) y8) (or (>= (- y8 0.4731537532) y6))))) 
(and (or (<= (+ x6 0.3605263053) x9) (or (<= (+ x9 0.387202307) x6) (or (>= (- y6 0.5709790159) y9) (or (>= (- y9 0.4719508403) y6))))) 
(and (or (<= (+ x6 0.3605263053) x10) (or (<= (+ x10 0.0405861363) x6) (or (>= (- y6 0.5709790159) y10) (or (>= (- y10 0.3853371255) y6))))) 
(and (or (<= (+ x6 0.3605263053) x11) (or (<= (+ x11 0.4636132649) x6) (or (>= (- y6 0.5709790159) y11) (or (>= (- y11 0.3137774403) y6))))) 
(and (or (<= (+ x6 0.3605263053) x12) (or (<= (+ x12 0.6705213515) x6) (or (>= (- y6 0.5709790159) y12) (or (>= (- y12 0.2734031729) y6))))) 
(and (or (<= (+ x6 0.3605263053) x13) (or (<= (+ x13 0.7497991091) x6) (or (>= (- y6 0.5709790159) y13) (or (>= (- y13 0.2527138283) y6))))) 
(and (or (<= (+ x6 0.3605263053) x14) (or (<= (+ x14 0.5269493387) x6) (or (>= (- y6 0.5709790159) y14) (or (>= (- y14 0.0372081119) y6))))) 
(and (or (<= (+ x7 0.9754221876) x8) (or (<= (+ x8 0.8591705677) x7) (or (>= (- y7 0.5244660966) y8) (or (>= (- y8 0.4731537532) y7))))) 
(and (or (<= (+ x7 0.9754221876) x9) (or (<= (+ x9 0.387202307) x7) (or (>= (- y7 0.5244660966) y9) (or (>= (- y9 0.4719508403) y7))))) 
(and (or (<= (+ x7 0.9754221876) x10) (or (<= (+ x10 0.0405861363) x7) (or (>= (- y7 0.5244660966) y10) (or (>= (- y10 0.3853371255) y7))))) 
(and (or (<= (+ x7 0.9754221876) x11) (or (<= (+ x11 0.4636132649) x7) (or (>= (- y7 0.5244660966) y11) (or (>= (- y11 0.3137774403) y7))))) 
(and (or (<= (+ x7 0.9754221876) x12) (or (<= (+ x12 0.6705213515) x7) (or (>= (- y7 0.5244660966) y12) (or (>= (- y12 0.2734031729) y7))))) 
(and (or (<= (+ x7 0.9754221876) x13) (or (<= (+ x13 0.7497991091) x7) (or (>= (- y7 0.5244660966) y13) (or (>= (- y13 0.2527138283) y7))))) 
(and (or (<= (+ x7 0.9754221876) x14) (or (<= (+ x14 0.5269493387) x7) (or (>= (- y7 0.5244660966) y14) (or (>= (- y14 0.0372081119) y7))))) 
(and (or (<= (+ x8 0.8591705677) x9) (or (<= (+ x9 0.387202307) x8) (or (>= (- y8 0.4731537532) y9) (or (>= (- y9 0.4719508403) y8))))) 
(and (or (<= (+ x8 0.8591705677) x10) (or (<= (+ x10 0.0405861363) x8) (or (>= (- y8 0.4731537532) y10) (or (>= (- y10 0.3853371255) y8))))) 
(and (or (<= (+ x8 0.8591705677) x11) (or (<= (+ x11 0.4636132649) x8) (or (>= (- y8 0.4731537532) y11) (or (>= (- y11 0.3137774403) y8))))) 
(and (or (<= (+ x8 0.8591705677) x12) (or (<= (+ x12 0.6705213515) x8) (or (>= (- y8 0.4731537532) y12) (or (>= (- y12 0.2734031729) y8))))) 
(and (or (<= (+ x8 0.8591705677) x13) (or (<= (+ x13 0.7497991091) x8) (or (>= (- y8 0.4731537532) y13) (or (>= (- y13 0.2527138283) y8))))) 
(and (or (<= (+ x8 0.8591705677) x14) (or (<= (+ x14 0.5269493387) x8) (or (>= (- y8 0.4731537532) y14) (or (>= (- y14 0.0372081119) y8))))) 
(and (or (<= (+ x9 0.387202307) x10) (or (<= (+ x10 0.0405861363) x9) (or (>= (- y9 0.4719508403) y10) (or (>= (- y10 0.3853371255) y9))))) 
(and (or (<= (+ x9 0.387202307) x11) (or (<= (+ x11 0.4636132649) x9) (or (>= (- y9 0.4719508403) y11) (or (>= (- y11 0.3137774403) y9))))) 
(and (or (<= (+ x9 0.387202307) x12) (or (<= (+ x12 0.6705213515) x9) (or (>= (- y9 0.4719508403) y12) (or (>= (- y12 0.2734031729) y9))))) 
(and (or (<= (+ x9 0.387202307) x13) (or (<= (+ x13 0.7497991091) x9) (or (>= (- y9 0.4719508403) y13) (or (>= (- y13 0.2527138283) y9))))) 
(and (or (<= (+ x9 0.387202307) x14) (or (<= (+ x14 0.5269493387) x9) (or (>= (- y9 0.4719508403) y14) (or (>= (- y14 0.0372081119) y9))))) 
(and (or (<= (+ x10 0.0405861363) x11) (or (<= (+ x11 0.4636132649) x10) (or (>= (- y10 0.3853371255) y11) (or (>= (- y11 0.3137774403) y10))))) 
(and (or (<= (+ x10 0.0405861363) x12) (or (<= (+ x12 0.6705213515) x10) (or (>= (- y10 0.3853371255) y12) (or (>= (- y12 0.2734031729) y10))))) 
(and (or (<= (+ x10 0.0405861363) x13) (or (<= (+ x13 0.7497991091) x10) (or (>= (- y10 0.3853371255) y13) (or (>= (- y13 0.2527138283) y10))))) 
(and (or (<= (+ x10 0.0405861363) x14) (or (<= (+ x14 0.5269493387) x10) (or (>= (- y10 0.3853371255) y14) (or (>= (- y14 0.0372081119) y10))))) 
(and (or (<= (+ x11 0.4636132649) x12) (or (<= (+ x12 0.6705213515) x11) (or (>= (- y11 0.3137774403) y12) (or (>= (- y12 0.2734031729) y11))))) 
(and (or (<= (+ x11 0.4636132649) x13) (or (<= (+ x13 0.7497991091) x11) (or (>= (- y11 0.3137774403) y13) (or (>= (- y13 0.2527138283) y11))))) 
(and (or (<= (+ x11 0.4636132649) x14) (or (<= (+ x14 0.5269493387) x11) (or (>= (- y11 0.3137774403) y14) (or (>= (- y14 0.0372081119) y11))))) 
(and (or (<= (+ x12 0.6705213515) x13) (or (<= (+ x13 0.7497991091) x12) (or (>= (- y12 0.2734031729) y13) (or (>= (- y13 0.2527138283) y12))))) 
(and (or (<= (+ x12 0.6705213515) x14) (or (<= (+ x14 0.5269493387) x12) (or (>= (- y12 0.2734031729) y14) (or (>= (- y14 0.0372081119) y12))))) 
(and (or (<= (+ x13 0.7497991091) x14) (or (<= (+ x14 0.5269493387) x13) (or (>= (- y13 0.2527138283) y14) (or (>= (- y14 0.0372081119) y13))))) )))))))))))))))))))))))))))))))))))))))))))))))))))))))))))))))))))))))))))))))))))))))))))))))))))))))))))))))))))))))))))))))))))))))))))))))))))))))))))))))))))))))))))))))))))))))))))))))))))))))))))))))))))))))
(minimize c)
(check-sat)
(get-objectives)
(exit)
